12° run output:
{
    "Function": "kroA300.tsp",
    "Problem dimension": [
        97,
        154,
        256,
        216,
        194,
        78,
        32,
        146,
        26,
        103,
        161,
        217,
        12,
        87,
        142,
        249,
        203,
        266,
        157,
        100,
        286,
        212,
        40,
        197,
        186,
        227,
        278,
        131,
        52,
        230,
        202,
        68,
        56,
        204,
        241,
        205,
        95,
        211,
        55,
        90,
        138,
        185,
        106,
        129,
        276,
        84,
        226,
        277,
        213,
        14,
        115,
        158,
        48,
        65,
        83,
        155,
        280,
        69,
        24,
        109,
        189,
        258,
        284,
        31,
        17,
        101,
        72,
        73,
        10,
        169,
        70,
        222,
        174,
        187,
        119,
        4,
        273,
        271,
        219,
        38,
        94,
        168,
        297,
        255,
        82,
        156,
        91,
        9,
        6,
        112,
        225,
        207,
        190,
        236,
        182,
        30,
        102,
        238,
        123,
        81,
        275,
        7,
        274,
        39,
        269,
        107,
        178,
        246,
        228,
        136,
        244,
        261,
        170,
        231,
        148,
        98,
        171,
        77,
        137,
        3,
        66,
        85,
        20,
        76,
        183,
        60,
        43,
        117,
        206,
        282,
        295,
        164,
        13,
        260,
        290,
        22,
        121,
        141,
        184,
        74,
        51,
        188,
        27,
        291,
        193,
        191,
        198,
        145,
        218,
        11,
        165,
        67,
        199,
        63,
        58,
        293,
        214,
        172,
        2,
        242,
        208,
        19,
        209,
        150,
        181,
        35,
        122,
        21,
        46,
        144,
        124,
        257,
        54,
        41,
        114,
        135,
        59,
        23,
        44,
        245,
        96,
        263,
        162,
        116,
        0,
        64,
        50,
        108,
        110,
        127,
        281,
        49,
        283,
        36,
        298,
        167,
        267,
        177,
        175,
        104,
        250,
        139,
        285,
        262,
        270,
        153,
        272,
        88,
        166,
        265,
        1,
        201,
        152,
        80,
        292,
        179,
        221,
        223,
        235,
        224,
        147,
        143,
        149,
        105,
        25,
        252,
        232,
        126,
        248,
        243,
        173,
        45,
        62,
        192,
        53,
        42,
        99,
        220,
        200,
        259,
        86,
        118,
        93,
        299,
        253,
        215,
        133,
        34,
        247,
        289,
        296,
        240,
        132,
        128,
        140,
        57,
        33,
        113,
        239,
        120,
        18,
        47,
        29,
        79,
        111,
        210,
        268,
        229,
        61,
        233,
        5,
        264,
        254,
        151,
        159,
        92,
        180,
        234,
        163,
        89,
        288,
        294,
        195,
        28,
        8,
        196,
        287,
        160,
        237,
        75,
        130,
        251,
        125,
        15,
        134,
        16,
        71,
        37,
        176,
        279
    ],
    "Global Optimum": 0,
    "Algorithm": "Genetic algorithm",
    "Parameters": {
        "population": 30,
        "offspring": 30,
        "mutation probability": 0.0033333333333333335,
        "crossover probability": 0.9
    },
    "Fitness": 354572,
    "Solution": [
        97,
        154,
        256,
        216,
        194,
        78,
        32,
        146,
        26,
        103,
        161,
        217,
        12,
        87,
        142,
        249,
        203,
        266,
        157,
        100,
        286,
        212,
        40,
        197,
        186,
        227,
        278,
        131,
        52,
        230,
        202,
        68,
        56,
        204,
        241,
        205,
        95,
        211,
        55,
        90,
        138,
        185,
        106,
        129,
        276,
        84,
        226,
        277,
        213,
        14,
        115,
        158,
        48,
        65,
        83,
        155,
        280,
        69,
        24,
        109,
        189,
        258,
        284,
        31,
        17,
        101,
        72,
        73,
        10,
        169,
        70,
        222,
        174,
        187,
        119,
        4,
        273,
        271,
        219,
        38,
        94,
        168,
        297,
        255,
        82,
        156,
        91,
        9,
        6,
        112,
        225,
        207,
        190,
        236,
        182,
        30,
        102,
        238,
        123,
        81,
        275,
        7,
        274,
        39,
        269,
        107,
        178,
        246,
        228,
        136,
        244,
        261,
        170,
        231,
        148,
        98,
        171,
        77,
        137,
        3,
        66,
        85,
        20,
        76,
        183,
        60,
        43,
        117,
        206,
        282,
        295,
        164,
        13,
        260,
        290,
        22,
        121,
        141,
        184,
        74,
        51,
        188,
        27,
        291,
        193,
        191,
        198,
        145,
        218,
        11,
        165,
        67,
        199,
        63,
        58,
        293,
        214,
        172,
        2,
        242,
        208,
        19,
        209,
        150,
        181,
        35,
        122,
        21,
        46,
        144,
        124,
        257,
        54,
        41,
        114,
        135,
        59,
        23,
        44,
        245,
        96,
        263,
        162,
        116,
        0,
        64,
        50,
        108,
        110,
        127,
        281,
        49,
        283,
        36,
        298,
        167,
        267,
        177,
        175,
        104,
        250,
        139,
        285,
        262,
        270,
        153,
        272,
        88,
        166,
        265,
        1,
        201,
        152,
        80,
        292,
        179,
        221,
        223,
        235,
        224,
        147,
        143,
        149,
        105,
        25,
        252,
        232,
        126,
        248,
        243,
        173,
        45,
        62,
        192,
        53,
        42,
        99,
        220,
        200,
        259,
        86,
        118,
        93,
        299,
        253,
        215,
        133,
        34,
        247,
        289,
        296,
        240,
        132,
        128,
        140,
        57,
        33,
        113,
        239,
        120,
        18,
        47,
        29,
        79,
        111,
        210,
        268,
        229,
        61,
        233,
        5,
        264,
        254,
        151,
        159,
        92,
        180,
        234,
        163,
        89,
        288,
        294,
        195,
        28,
        8,
        196,
        287,
        160,
        237,
        75,
        130,
        251,
        125,
        15,
        134,
        16,
        71,
        37,
        176,
        279
    ],
    "Nb of functions evaluations": 50010,
    "Computational time in seconds": 143.02540063858032,
    "Stopping criterion in evaluations": 50000
}